p cnf 144 1
144 0
w 1 0.16801
w 2 1 0.556426
w 2 -1 0.36023
w 3 2 0.970028
w 3 -2 0.476588
w 4 3 0.150903
w 4 -3 0.0223961
w 5 4 0.88992
w 5 -4 0.429258
w 6 5 0.84441
w 6 -5 0.802372
w 7 6 0.129766
w 7 -6 0.0141011
w 8 7 0.455859
w 8 -7 0.761423
w 9 8 0.236215
w 9 -8 0.3481
w 10 9 0.518788
w 10 -9 0.456469
w 11 10 0.676733
w 11 -10 0.273344
w 12 11 0.515461
w 12 -11 0.82977
w 13 1 0
w 13 -1 1
w 14 13 2 0.655265
w 14 13 -2 0.776603
w 14 -13 2 0.950701
w 14 -13 -2 0.677661
w 15 14 3 0.84062
w 15 14 -3 0.106919
w 15 -14 3 0.504264
w 15 -14 -3 0.68503
w 16 15 4 0.447881
w 16 15 -4 0.814796
w 16 -15 4 0.923393
w 16 -15 -4 0.0289141
w 17 16 5 1
w 17 16 -5 0
w 17 -16 5 0
w 17 -16 -5 0
w 18 17 6 0
w 18 17 -6 0
w 18 -17 6 0
w 18 -17 -6 1
w 19 18 7 0.692009
w 19 18 -7 0.217852
w 19 -18 7 0.592499
w 19 -18 -7 0.870686
w 20 19 8 0
w 20 19 -8 1
w 20 -19 8 1
w 20 -19 -8 1
w 21 20 9 1
w 21 20 -9 0
w 21 -20 9 1
w 21 -20 -9 1
w 22 21 10 0.219823
w 22 21 -10 0.846342
w 22 -21 10 0.683443
w 22 -21 -10 0.143216
w 23 22 11 0.954098
w 23 22 -11 0.828032
w 23 -22 11 0.482503
w 23 -22 -11 0.460969
w 24 23 12 0.705628
w 24 23 -12 0.486627
w 24 -23 12 0.350333
w 24 -23 -12 0.579189
w 25 13 0
w 25 -13 1
w 26 25 14 1
w 26 25 -14 0
w 26 -25 14 0
w 26 -25 -14 1
w 27 26 15 0
w 27 26 -15 0
w 27 -26 15 0
w 27 -26 -15 1
w 28 27 16 0.62447
w 28 27 -16 0.181978
w 28 -27 16 0.379523
w 28 -27 -16 0.493117
w 29 28 17 1
w 29 28 -17 0
w 29 -28 17 1
w 29 -28 -17 0
w 30 29 18 0
w 30 29 -18 1
w 30 -29 18 1
w 30 -29 -18 0
w 31 30 19 0
w 31 30 -19 1
w 31 -30 19 0
w 31 -30 -19 0
w 32 31 20 0.139639
w 32 31 -20 0.674142
w 32 -31 20 0.402952
w 32 -31 -20 0.281523
w 33 32 21 0.500808
w 33 32 -21 0.949357
w 33 -32 21 0.619575
w 33 -32 -21 0.941661
w 34 33 22 0.600637
w 34 33 -22 0.566131
w 34 -33 22 0.00278225
w 34 -33 -22 0.98016
w 35 34 23 1
w 35 34 -23 0
w 35 -34 23 1
w 35 -34 -23 0
w 36 35 24 1
w 36 35 -24 0
w 36 -35 24 1
w 36 -35 -24 0
w 37 25 0.180024
w 37 -25 0.0363493
w 38 37 26 0
w 38 37 -26 0
w 38 -37 26 1
w 38 -37 -26 1
w 39 38 27 0.24132
w 39 38 -27 0.469628
w 39 -38 27 0.510473
w 39 -38 -27 0.742128
w 40 39 28 1
w 40 39 -28 0
w 40 -39 28 1
w 40 -39 -28 1
w 41 40 29 1
w 41 40 -29 1
w 41 -40 29 1
w 41 -40 -29 0
w 42 41 30 0.544977
w 42 41 -30 0.596756
w 42 -41 30 0.224018
w 42 -41 -30 0.911445
w 43 42 31 0.11479
w 43 42 -31 0.86954
w 43 -42 31 0.476055
w 43 -42 -31 0.294814
w 44 43 32 0.617032
w 44 43 -32 0.34328
w 44 -43 32 0.209511
w 44 -43 -32 0.455401
w 45 44 33 0.187275
w 45 44 -33 0.696721
w 45 -44 33 0.0010125
w 45 -44 -33 0.697748
w 46 45 34 0
w 46 45 -34 1
w 46 -45 34 1
w 46 -45 -34 1
w 47 46 35 0.372559
w 47 46 -35 0.902356
w 47 -46 35 0.269326
w 47 -46 -35 0.681727
w 48 47 36 0.186197
w 48 47 -36 0.226705
w 48 -47 36 0.146267
w 48 -47 -36 0.410215
w 49 37 1
w 49 -37 0
w 50 49 38 0.00768973
w 50 49 -38 0.541729
w 50 -49 38 0.819819
w 50 -49 -38 0.913579
w 51 50 39 1
w 51 50 -39 0
w 51 -50 39 1
w 51 -50 -39 0
w 52 51 40 1
w 52 51 -40 0
w 52 -51 40 0
w 52 -51 -40 0
w 53 52 41 1
w 53 52 -41 1
w 53 -52 41 0
w 53 -52 -41 1
w 54 53 42 1
w 54 53 -42 0
w 54 -53 42 0
w 54 -53 -42 1
w 55 54 43 0.153361
w 55 54 -43 0.373412
w 55 -54 43 0.260127
w 55 -54 -43 0.29151
w 56 55 44 1
w 56 55 -44 1
w 56 -55 44 0
w 56 -55 -44 1
w 57 56 45 0
w 57 56 -45 0
w 57 -56 45 0
w 57 -56 -45 1
w 58 57 46 0
w 58 57 -46 1
w 58 -57 46 1
w 58 -57 -46 0
w 59 58 47 0.273521
w 59 58 -47 0.490257
w 59 -58 47 0.686723
w 59 -58 -47 0.048799
w 60 59 48 0.931652
w 60 59 -48 0.726434
w 60 -59 48 0.548361
w 60 -59 -48 0.858308
w 61 49 0.398274
w 61 -49 0.011669
w 62 61 50 0
w 62 61 -50 0
w 62 -61 50 0
w 62 -61 -50 1
w 63 62 51 0.746893
w 63 62 -51 0.0484837
w 63 -62 51 0.815159
w 63 -62 -51 0.886469
w 64 63 52 0.151028
w 64 63 -52 0.640207
w 64 -63 52 0.279065
w 64 -63 -52 0.797263
w 65 64 53 0.437092
w 65 64 -53 0.451611
w 65 -64 53 0.51918
w 65 -64 -53 0.710613
w 66 65 54 0.205903
w 66 65 -54 0.759412
w 66 -65 54 0.826513
w 66 -65 -54 0.137555
w 67 66 55 0
w 67 66 -55 0
w 67 -66 55 1
w 67 -66 -55 0
w 68 67 56 1
w 68 67 -56 1
w 68 -67 56 0
w 68 -67 -56 0
w 69 68 57 0.913091
w 69 68 -57 0.279387
w 69 -68 57 0.923567
w 69 -68 -57 0.72825
w 70 69 58 0
w 70 69 -58 1
w 70 -69 58 1
w 70 -69 -58 0
w 71 70 59 0.510891
w 71 70 -59 0.456257
w 71 -70 59 0.128152
w 71 -70 -59 0.0300707
w 72 71 60 1
w 72 71 -60 1
w 72 -71 60 0
w 72 -71 -60 0
w 73 61 0
w 73 -61 1
w 74 73 62 0
w 74 73 -62 1
w 74 -73 62 1
w 74 -73 -62 0
w 75 74 63 0.476107
w 75 74 -63 0.687635
w 75 -74 63 0.150462
w 75 -74 -63 0.35119
w 76 75 64 0.429849
w 76 75 -64 0.274757
w 76 -75 64 0.328975
w 76 -75 -64 0.595705
w 77 76 65 0
w 77 76 -65 1
w 77 -76 65 1
w 77 -76 -65 0
w 78 77 66 0.490277
w 78 77 -66 0.012946
w 78 -77 66 0.942729
w 78 -77 -66 0.657147
w 79 78 67 1
w 79 78 -67 0
w 79 -78 67 1
w 79 -78 -67 1
w 80 79 68 0
w 80 79 -68 0
w 80 -79 68 1
w 80 -79 -68 0
w 81 80 69 0.98618
w 81 80 -69 0.61554
w 81 -80 69 0.122759
w 81 -80 -69 0.586906
w 82 81 70 0
w 82 81 -70 1
w 82 -81 70 0
w 82 -81 -70 0
w 83 82 71 0
w 83 82 -71 1
w 83 -82 71 1
w 83 -82 -71 1
w 84 83 72 0.0218735
w 84 83 -72 0.898248
w 84 -83 72 0.593817
w 84 -83 -72 0.104839
w 85 73 0
w 85 -73 1
w 86 85 74 0
w 86 85 -74 1
w 86 -85 74 1
w 86 -85 -74 0
w 87 86 75 1
w 87 86 -75 0
w 87 -86 75 1
w 87 -86 -75 0
w 88 87 76 0.100531
w 88 87 -76 0.525033
w 88 -87 76 0.422435
w 88 -87 -76 0.14592
w 89 88 77 0.338316
w 89 88 -77 0.787014
w 89 -88 77 0.33492
w 89 -88 -77 0.46245
w 90 89 78 0.781312
w 90 89 -78 0.471377
w 90 -89 78 0.785394
w 90 -89 -78 0.717982
w 91 90 79 1
w 91 90 -79 0
w 91 -90 79 0
w 91 -90 -79 0
w 92 91 80 1
w 92 91 -80 0
w 92 -91 80 1
w 92 -91 -80 0
w 93 92 81 0.681761
w 93 92 -81 0.648375
w 93 -92 81 0.789926
w 93 -92 -81 0.166752
w 94 93 82 0
w 94 93 -82 0
w 94 -93 82 1
w 94 -93 -82 1
w 95 94 83 0
w 95 94 -83 0
w 95 -94 83 1
w 95 -94 -83 0
w 96 95 84 0.0300922
w 96 95 -84 0.614461
w 96 -95 84 0.320034
w 96 -95 -84 0.815486
w 97 85 0
w 97 -85 1
w 98 97 86 1
w 98 97 -86 0
w 98 -97 86 0
w 98 -97 -86 1
w 99 98 87 0
w 99 98 -87 1
w 99 -98 87 0
w 99 -98 -87 0
w 100 99 88 0
w 100 99 -88 1
w 100 -99 88 1
w 100 -99 -88 0
w 101 100 89 0
w 101 100 -89 1
w 101 -100 89 0
w 101 -100 -89 1
w 102 101 90 0.439551
w 102 101 -90 0.524352
w 102 -101 90 0.717551
w 102 -101 -90 0.288208
w 103 102 91 0.332012
w 103 102 -91 0.608242
w 103 -102 91 0.369931
w 103 -102 -91 0.664455
w 104 103 92 0
w 104 103 -92 0
w 104 -103 92 0
w 104 -103 -92 1
w 105 104 93 0
w 105 104 -93 1
w 105 -104 93 0
w 105 -104 -93 0
w 106 105 94 0
w 106 105 -94 0
w 106 -105 94 1
w 106 -105 -94 1
w 107 106 95 0.753795
w 107 106 -95 0.268598
w 107 -106 95 0.994682
w 107 -106 -95 0.807139
w 108 107 96 0.879085
w 108 107 -96 0.246691
w 108 -107 96 0.117085
w 108 -107 -96 0.596636
w 109 97 0.67153
w 109 -97 0.928648
w 110 109 98 0
w 110 109 -98 1
w 110 -109 98 1
w 110 -109 -98 1
w 111 110 99 0.397566
w 111 110 -99 0.0393003
w 111 -110 99 0.343784
w 111 -110 -99 0.324267
w 112 111 100 0.580904
w 112 111 -100 0.362438
w 112 -111 100 0.18592
w 112 -111 -100 0.29492
w 113 112 101 0
w 113 112 -101 1
w 113 -112 101 1
w 113 -112 -101 1
w 114 113 102 0.763643
w 114 113 -102 0.495197
w 114 -113 102 0.513917
w 114 -113 -102 0.642728
w 115 114 103 0.631002
w 115 114 -103 0.239364
w 115 -114 103 0.276786
w 115 -114 -103 0.302531
w 116 115 104 0
w 116 115 -104 0
w 116 -115 104 1
w 116 -115 -104 1
w 117 116 105 0
w 117 116 -105 1
w 117 -116 105 1
w 117 -116 -105 1
w 118 117 106 0.111387
w 118 117 -106 0.587602
w 118 -117 106 0.068864
w 118 -117 -106 0.297307
w 119 118 107 0.229317
w 119 118 -107 0.231569
w 119 -118 107 0.535108
w 119 -118 -107 0.998278
w 120 119 108 0.456292
w 120 119 -108 0.761921
w 120 -119 108 0.414825
w 120 -119 -108 0.970209
w 121 109 1
w 121 -109 0
w 122 121 110 0.644012
w 122 121 -110 0.433499
w 122 -121 110 0.903742
w 122 -121 -110 0.812024
w 123 122 111 0.247734
w 123 122 -111 0.573139
w 123 -122 111 0.838018
w 123 -122 -111 0.502246
w 124 123 112 0
w 124 123 -112 0
w 124 -123 112 0
w 124 -123 -112 1
w 125 124 113 0.830354
w 125 124 -113 0.995467
w 125 -124 113 0.204752
w 125 -124 -113 0.712876
w 126 125 114 1
w 126 125 -114 1
w 126 -125 114 1
w 126 -125 -114 0
w 127 126 115 0.984983
w 127 126 -115 0.770773
w 127 -126 115 0.674485
w 127 -126 -115 0.389632
w 128 127 116 0.275695
w 128 127 -116 0.033644
w 128 -127 116 0.360984
w 128 -127 -116 0.179437
w 129 128 117 0.21441
w 129 128 -117 0.427171
w 129 -128 117 0.418807
w 129 -128 -117 0.0524278
w 130 129 118 0.65486
w 130 129 -118 0.272605
w 130 -129 118 0.725475
w 130 -129 -118 0.897612
w 131 130 119 0
w 131 130 -119 1
w 131 -130 119 1
w 131 -130 -119 1
w 132 131 120 1
w 132 131 -120 0
w 132 -131 120 0
w 132 -131 -120 1
w 133 121 0.393103
w 133 -121 0.627505
w 134 133 122 1
w 134 133 -122 1
w 134 -133 122 0
w 134 -133 -122 0
w 135 134 123 1
w 135 134 -123 1
w 135 -134 123 0
w 135 -134 -123 0
w 136 135 124 0.315256
w 136 135 -124 0.956021
w 136 -135 124 0.879308
w 136 -135 -124 0.970116
w 137 136 125 0
w 137 136 -125 1
w 137 -136 125 1
w 137 -136 -125 1
w 138 137 126 0.622509
w 138 137 -126 0.0753736
w 138 -137 126 0.0365353
w 138 -137 -126 0.0419693
w 139 138 127 0
w 139 138 -127 1
w 139 -138 127 0
w 139 -138 -127 1
w 140 139 128 1
w 140 139 -128 0
w 140 -139 128 0
w 140 -139 -128 1
w 141 140 129 0.379915
w 141 140 -129 0.397401
w 141 -140 129 0.0520567
w 141 -140 -129 0.276364
w 142 141 130 1
w 142 141 -130 0
w 142 -141 130 0
w 142 -141 -130 1
w 143 142 131 0.485641
w 143 142 -131 0.48604
w 143 -142 131 0.429462
w 143 -142 -131 0.913475
w 144 143 132 0.0251553
w 144 143 -132 0.535984
w 144 -143 132 0.799116
w 144 -143 -132 0.0616905